Maximize
  945.3919654933202 I0(6) + 4397.667165453231 I1(16) - 127.7762031098 I2(1)
   + 3517.721783503881 I3(15) + 1522.4266455446 I4(6)
   + 849.0933040854001 I5(4) + 624.1614022091001 I6(3)
   + 3001.498561151169 I7(15) + 2307.84714891751 I8(13)
   + 1757.63098398684 I9(14) + 956.16207062116 I10(9)
   + 1395.21406679161 I11(7) + 2077.6688267523 I12(5)
   + 1429.70191111108 I13(7) + 957.35273957864 I14(5)
   + 703.64614418603 I15(4) + 2061.08036411223 I16(9)
   + 361.92240695669 I17(5) + 1128.16587311899 I18(8)
   + 1477.62939697407 I19(7) + 645.4475469238698 I20(4)
   + 1325.62236965637 I21(9) - 12.31391554929002 I22(2)
   + 1431.55887522372 I23(9) + 577.6914500856 I24(7)
   + 898.33717217347 I25(6) + 3330.131542058731 I26(13)
   - 5.846684408270022 I27(2) + 1723.24336819999 I28(9)
   + 1585.93578737915 I29(8) + 1151.04021420489 I30(5)
   + 894.14931903282 I31(6) + 1328.1474856145 I32(8)
   + 2122.67981867762 I33(13) + 2856.99381213612 I34(13)
   - 200.8560389065 I35(1) + 3358.864114820201 I36(15)
   + 2698.87719424417 I37(16) + 1401.21382463528 I38(8)
   + 723.59857665249 I39(4) + 2197.339159046509 I40(15)
   + 2359.01241636817 I41(17) + 857.8397444517799 I42(7)
   + 1744.69675414958 I43(14) + 2665.24822307187 I44(13)
   + 1791.21230120651 I45(11) + 1327.50812266351 I46(10)
   + 2672.17409573822 I47(14) + 879.8544175795 I48(4)
   + 998.92718492423 I49(10) + 960.8981239134901 I50(7)
   + 2506.50960944071 I51(13) + 1141.495551032 I52(7)
   + 1252.1384958182 I53(8) + 845.15971044911 I54(5)
   + 2695.386960171879 I55(13) + 1680.30624935833 I56(9)
   + 2035.17380092226 I57(12) + 1587.18274966052 I58(7)
   + 34.25268780637998 I59(3) + 772.4306942635901 I60(5)
   + 2401.27278731536 I61(11) + 1532.10454340807 I62(11)
   - 71.43305332390001 I63(2) + 626.2362757272699 I64(6)
   + 1285.66115903228 I65(9) + 52.96800484266998 I66(2)
   + 894.3341969646599 I67(5) + 525.0555119235 I68(6)
   + 3609.425509828531 I69(15) + 3752.513026613231 I70(15)
   - 133.52006605052 I71(1) + 1888.915957141679 I72(14)
   + 2763.572892678371 I73(12) + 1353.0650863842 I74(6)
   + 1984.674010430343 I75(15) + 333.858889332951 I76(5)
   + 2562.90188001256 I77(14) + 1454.61948769218 I78(10)
   + 1689.48595508743 I79(12) + 2848.226927037111 I80(12)
   + 3212.797870756061 I81(14) - 37.85614581150003 I82(2)
   + 1329.259562633191 I83(12) + 2246.790471734923 I84(16)
   + 505.1805993114109 I85(4) + 4155.292109069241 I86(17)
   + 1773.089265842121 I87(12) + 3459.116195638191 I88(14)
   + 1651.518027068734 I89(13) + 719.2992462361341 I90(8)
   + 2316.459446548271 I91(12) + 1849.469686165291 I92(12)
   + 916.860137550224 I93(6) + 413.364268362461 I94(6)
   + 351.14799710058 I95(4) + 3767.36551997139 I96(17)
   + 2551.52253176943 I97(13) + 222.23711724815 I98(5)
   + 1474.22306245734 I99(8) + 3384.97687328626 I100(15)
   + 3511.96292579881 I101(15) - 192.3851721682 I102(1)
   + 2827.079764230829 I103(14) + 2811.825296221679 I104(17)
   + 1469.7099294706 I105(10) + 2048.87862059065 I106(11)
   + 2352.536594772109 I107(15) + 2234.20812850684 I108(13)
   + 2436.11774755397 I109(15) + 1849.35092243709 I110(12)
   + 2035.25740758488 I111(11) + 1082.37514615659 I112(8)
   + 1141.45164857891 I113(7) + 1419.51620061759 I114(6)
   + 618.4262233421699 I115(5) + 532.87725280771 I116(7)
   + 395.2795329496199 I117(3) + 602.2327166908601 I118(6)
   + 1459.1387759009 I119(6) + 2567.63923175296 I120(14)
   + 839.8984120126299 I121(4) + 1164.58921617578 I122(6)
   + 583.0517650974 I123(4) + 720.0585314584698 I124(6)
   + 2094.24203620216 I125(14) + 491.8921187023201 I126(6)
   + 1246.91760527533 I127(8) + 2911.20588206617 I128(13)
   + 1350.29646120171 I129(10) + 1112.51203431235 I130(11)
   + 2160.735701104 I131(12) + 1696.80438626385 I132(11)
   + 2225.43775538983 I133(13) + 2588.68320727565 I134(11)
   + 453.5338913637199 I135(5) + 499.1169862707 I136(5)
   + 3993.12753246506 I137(16) + 4023.852859863709 I138(16)
   - 110.3111246857 I139(1) + 3207.00303702085 I140(16)
   + 279.9208655566 I141(4) + 2672.00229362591 I142(15)
   + 522.3384883116099 I143(6) + 2166.366765324629 I144(14)
   + 2037.546112616009 I145(14) + 722.4866564486799 I146(8)
   + 3310.744550288259 I147(17) + 325.7848954190999 I148(4)
   + 2335.32604828364 I149(9) + 146.65297736471 I150(3)
   - 6.982844454320016 I151(2) + 34.17704404525998 I152(2)
   + 229.420509254 I153(3) - 89.94849877258 I154(2)
   + 485.8992987542 I155(2) + 154.89714399436 I156(3)
   + 664.42713460676 I157(3) + 1304.45192408628 I158(9)
   + 1589.7101752395 I159(10) + 1089.28014524897 I160(6)
   + 625.0207447927198 I161(8) + 1708.36923093999 I162(9)
   + 0.3924394874999848 I163(2) + 800.8846559490801 I164(6)
   + 631.91203904598 I165(7) + 1187.77711095491 I166(6)
   + 635.62408949064 I167(6) + 4052.88770026366 I168(17)
   + 4184.582003132189 I169(17) - 185.9792298 I170(1)
   + 3084.02675044189 I171(15) + 3056.93419931561 I172(15)
   + 1190.99618840389 I173(6) + 2076.44415853892 I174(11)
   + 3445.359245887969 I175(15) + 414.43273483464 I176(4)
   + 1896.80848536076 I177(10) + 1443.22609743558 I178(12)
   + 2925.79536843123 I179(16) + 3290.94530574584 I180(15)
   + 2874.46943726978 I181(15) + 2517.01721556948 I182(12)
   + 3173.864679239609 I183(15) + 342.0467276922899 I184(5)
   + 3058.290695746161 I185(15) + 1288.94609354439 I186(9)
   + 470.05649065332 I187(3) + 3283.72828740418 I188(12)
   + 1790.11676605903 I189(9) + 1811.38493914327 I190(8)
   + 1254.23713512079 I191(7) + 2448.857663318369 I192(17)
   + 1194.69172600666 I193(6) + 3034.431960009259 I194(14)
   + 3080.43778990493 I195(14) + 1138.8454600207 I196(8)
   + 2452.43170636054 I197(12) + 3225.929685831599 I198(11)
   + 2402.45070559153 I199(12) + 1297.61257984847 I200(6)
   + 3644.5267701506 I201(14) - 151.658265697 I202(1)
   + 2729.66576843134 I203(14) + 2379.393243117859 I204(17)
   + 1684.4525206948 I205(8) + 1011.55903908296 I206(4)
   + 453.82465951114 I207(4) + 143.3870224471 I208(3)
   + 95.33618467821 I209(2) + 1103.56898254008 I210(8)
   + 266.3527871632301 I211(4) + 73.07141036013002 I212(2)
   - 36.76163479780001 I213(2) + 162.07093763874 I214(4)
   - 23.83334015930002 I215(2) - 93.89848190895999 I216(2)
   + 97.24825170563997 I217(2) + 59.32666681779 I218(3)
   - 37.09353001074999 I219(2) + 371.2198928097799 I220(3)
   + 112.96289771573 I221(4) + 659.0136202278001 I222(3)
   + 212.72600297014 I223(3) + 93.75597686829997 I224(3)
   + 662.16179540222 I225(3)
Subject To
 c0: 5 I1(16) + 5 I7(15) + 5 I12(5) + 5 I26(13) + 5 I44(13) + 5 I47(14)
   + 5 I52(7) + 5 I54(5) + 5 I55(13) + 5 I56(9) + 5 I58(7) + 5 I61(11)
   + 5 I69(15) + 5 I70(15) + 5 I75(15) + 5 I77(14) + 5 I78(10) + 5 I79(12)
   + 5 I80(12) + 5 I81(14) + 5 I84(16) + 5 I86(17) + 5 I88(14) + 5 I89(13)
   + 5 I96(17) + 5 I97(13) + 5 I100(15) + 5 I101(15) + 5 I106(11)
   + 5 I107(15) + 5 I121(4) + 5 I128(13) + 5 I137(16) + 5 I138(16)
   + 5 I144(14) + 5 I147(17) + 5 I149(9) + 5 I168(17) + 5 I169(17)
   + 5 I171(15) + 5 I175(15) + 5 I177(10) + 5 I180(15) + 5 I181(15)
   + 5 I183(15) + 5 I188(12) + 5 I190(8) + 5 I194(14) + 5 I195(14)
   + 5 I197(12) + 5 I198(11) + 5 I199(12) + 5 I200(6) + 5 I201(14) <= 5
 c1: 9 I0(6) + 9 I1(16) + 9 I3(15) + 9 I4(6) + 5 I8(13) + 9 I12(5)
   + 9 I15(4) + 9 I19(7) + 9 I36(15) + 9 I37(16) + 9 I47(14) + 9 I73(12)
   + 9 I80(12) + 9 I92(12) + 9 I104(17) + 9 I107(15) + 9 I111(11)
   + 9 I113(7) + 9 I120(14) + 9 I129(10) + 9 I134(11) + 9 I137(16)
   + 9 I149(9) + 9 I155(2) + 9 I157(3) + 9 I172(15) + 9 I181(15)
   + 9 I183(15) + 9 I188(12) + 9 I194(14) + 9 I198(11) <= 9
 c2: <= 0
 c3: 5 I0(6) + 5 I1(16) + 5 I7(15) + 5 I10(9) + 5 I19(7) + 5 I24(7)
   + 5 I25(6) + 2 I40(15) + 5 I41(17) + 5 I44(13) + 5 I45(11) + 5 I55(13)
   + 5 I56(9) + 5 I58(7) + 5 I60(5) + 5 I62(11) + 5 I64(6) + 2 I72(14)
   + 5 I75(15) + 5 I77(14) + 5 I78(10) + 5 I84(16) + 5 I107(15)
   + 5 I108(13) + 5 I110(12) + 5 I120(14) + 5 I128(13) + 5 I131(12)
   + 5 I132(11) + 5 I133(13) + 5 I144(14) + 5 I145(14) + 5 I161(8)
   + 5 I164(6) + 5 I165(7) + 5 I175(15) + 5 I181(15) + 5 I192(17)
   + 5 I204(17) + 5 I211(4) + 5 I219(2) + 5 I221(4) <= 5
 c4: 13 I0(6) + 13 I9(14) + 13 I43(14) + I75(15) + 13 I79(12) + 13 I84(16)
   + 13 I89(13) + 13 I92(12) + 9 I104(17) + 13 I107(15) + I109(15)
   + 13 I120(14) + 13 I125(14) + 13 I129(10) + 13 I130(11) + 13 I131(12)
   + 13 I132(11) + 13 I145(14) + 13 I154(2) + 13 I161(8) + 13 I164(6)
   + 13 I165(7) + 13 I179(16) + I192(17) + 13 I203(14) + 13 I204(17) <= 13
 c5: 5 I9(14) + 5 I10(9) + 5 I17(5) + 5 I21(9) + 5 I47(14) + 5 I49(10)
   + 5 I51(13) + 5 I65(9) + 5 I68(6) + 5 I69(15) + 5 I75(15) + 5 I77(14)
   + 5 I78(10) + 5 I79(12) + 5 I80(12) + 5 I83(12) + 5 I84(16) + 5 I87(12)
   + 5 I89(13) + 5 I91(12) + 5 I92(12) + 5 I94(6) + 5 I97(13) + 5 I98(5)
   + 5 I111(11) + 5 I125(14) + 5 I126(6) + 5 I127(8) + 5 I129(10)
   + 5 I135(5) + 5 I147(17) + 5 I192(17) + 5 I194(14) + 5 I195(14)
   + 5 I198(11) <= 5
 c6: <= 0
 c7: 4 I1(16) + 4 I3(15) + 8 I4(6) + 8 I5(4) + 8 I8(13) + 8 I16(9)
   + 8 I21(9) + 8 I23(9) + 4 I26(13) + 8 I28(9) + 8 I29(8) + 8 I32(8)
   + 8 I33(13) + 8 I34(13) + 4 I36(15) + 8 I37(16) + 8 I38(8) + 8 I41(17)
   + 8 I42(7) + 8 I50(7) + 8 I52(7) + 2 I56(9) + 8 I58(7) + 8 I65(9)
   + 8 I69(15) + 8 I70(15) + 8 I72(14) + 8 I84(16) + 8 I86(17) + 4 I96(17)
   + 8 I104(17) + 8 I105(10) + 8 I108(13) + 8 I117(3) + 8 I132(11)
   + 8 I138(16) + 8 I145(14) + 8 I165(7) + 4 I168(17) + 4 I169(17)
   + 8 I172(15) + 8 I173(6) + 8 I176(4) + 8 I178(12) + 5 I180(15)
   + 3 I182(12) + 8 I185(15) + 8 I192(17) + 8 I195(14) + 5 I199(12)
   + 8 I201(14) + 8 I204(17) + 8 I207(4) + 8 I209(2) <= 8
 c8: 9 I1(16) + 9 I7(15) + 9 I9(14) + 9 I16(9) + 9 I30(5) + 9 I34(13)
   + 9 I37(16) + 9 I53(8) + 9 I68(6) + 9 I69(15) + 9 I70(15) + 9 I86(17)
   + 6 I96(17) + 9 I97(13) + 9 I100(15) + 9 I101(15) + 9 I104(17)
   + 9 I109(15) + 9 I120(14) + 9 I134(11) + 9 I137(16) + 9 I138(16)
   + 9 I168(17) + 9 I169(17) + 9 I172(15) + 9 I175(15) + 9 I179(16)
   + 6 I181(15) + 9 I184(5) + 9 I186(9) + 9 I187(3) + 9 I188(12)
   + 9 I189(9) + 9 I190(8) + 9 I191(7) + 9 I192(17) + 6 I194(14)
   + 9 I195(14) + 9 I196(8) + 9 I198(11) + 9 I201(14) + 9 I204(17) <= 9
 c9: 12 I3(15) + 12 I8(13) + 12 I14(5) + 12 I37(16) + 12 I41(17)
   + 12 I47(14) + 12 I68(6) + 12 I69(15) + 12 I75(15) + 12 I80(12)
   + 12 I82(2) + 12 I87(12) + 12 I101(15) + 12 I103(14) + 12 I113(7)
   + 12 I115(5) + 12 I140(16) + 12 I142(15) + 12 I144(14) + 12 I145(14)
   + 12 I147(17) + 12 I152(2) + 12 I156(3) + 12 I157(3) + 12 I159(10)
   + 12 I161(8) + 12 I164(6) + 12 I165(7) + 12 I177(10) + 12 I183(15)
   + 12 I185(15) + 12 I215(2) + 12 I224(3) <= 12
 c10: 5 I1(16) + 5 I3(15) + 5 I7(15) + 5 I9(14) + 5 I24(7) + 5 I32(8)
   + 5 I33(13) + 5 I34(13) + 5 I36(15) + 5 I37(16) + 5 I40(15) + 5 I41(17)
   + 5 I42(7) + 5 I43(14) + 5 I44(13) + 5 I49(10) + 5 I51(13) + 5 I52(7)
   + 5 I54(5) + 5 I59(3) + 5 I62(11) + 5 I75(15) + 5 I77(14) + 5 I81(14)
   + 5 I84(16) + 5 I89(13) + 5 I90(8) + 5 I93(6) + 5 I97(13) + 5 I103(14)
   + 5 I104(17) + 5 I107(15) + 5 I109(15) + 5 I110(12) + 5 I118(6)
   + 5 I125(14) + 5 I126(6) + 5 I130(11) + 5 I137(16) + 5 I138(16)
   + 5 I140(16) + 5 I142(15) + 5 I144(14) + 5 I146(8) + 5 I147(17)
   + 5 I168(17) + 5 I169(17) + 5 I171(15) + 5 I172(15) + 5 I175(15)
   + 5 I180(15) + 5 I184(5) + 5 I185(15) + 5 I197(12) + 5 I198(11)
   + 5 I201(14) + 5 I203(14) + 5 I204(17) <= 5
 c11: 14 I1(16) + 14 I3(15) + 14 I7(15) + 14 I8(13) + 14 I12(5) + 9 I33(13)
   + 9 I34(13) + 14 I36(15) + 9 I40(15) + 14 I47(14) + 14 I74(6)
   + 14 I80(12) + 9 I88(14) + 9 I92(12) + 6 I100(15) + 6 I101(15)
   + 14 I103(14) + 14 I108(13) + 14 I113(7) + 6 I137(16) + 6 I138(16)
   + 14 I140(16) + 14 I142(15) + 14 I145(14) + 9 I146(8) + 14 I149(9)
   + 14 I167(6) + 14 I168(17) + 14 I169(17) + 14 I171(15) + 14 I175(15)
   + 14 I179(16) + 14 I183(15) + 14 I187(3) + 9 I188(12) + 14 I192(17)
   + 14 I195(14) + 14 I196(8) + 14 I203(14) + 14 I206(4) + 14 I220(3)
   <= 14
 c12: 13 I7(15) + 13 I37(16) + 13 I40(15) + 13 I41(17) + 13 I47(14)
   + 13 I50(7) + 13 I51(13) + 13 I69(15) + 13 I70(15) + 13 I72(14)
   + 13 I73(12) + 13 I77(14) + 13 I78(10) + 13 I80(12) + 10 I81(14)
   + 10 I86(17) + 10 I96(17) + 13 I98(5) + 13 I99(8) + 10 I100(15)
   + 10 I101(15) + 10 I105(10) + 13 I106(11) + 13 I114(6) + 13 I116(7)
   + 13 I118(6) + 13 I127(8) + 13 I134(11) + 13 I135(5) + 10 I137(16)
   + 10 I138(16) + 13 I143(6) + 10 I147(17) + 10 I149(9) + 13 I150(3)
   + 13 I151(2) + 10 I168(17) + 10 I169(17) + 13 I172(15) + 6 I174(11)
   + 13 I175(15) + 11 I181(15) + 13 I183(15) + 8 I185(15) + 11 I199(12)
   <= 13
 c13: 8 I9(14) + 8 I10(9) + 8 I18(8) + 8 I21(9) + 8 I23(9) + 8 I25(6)
   + 8 I36(15) + 8 I43(14) + 8 I46(10) + 8 I51(13) + 8 I73(12) + 8 I76(5)
   + 8 I94(6) + 8 I99(8) + 8 I100(15) + 8 I107(15) + 8 I108(13)
   + 8 I110(12) + 8 I112(8) + 8 I124(6) + 8 I158(9) + 8 I178(12)
   + 8 I179(16) + 8 I182(12) + 8 I191(7) + 8 I192(17) + 8 I210(8)
   + 8 I218(3) + 8 I221(4) <= 8
 c14: <= 0
 c15: 12 I9(14) + 12 I10(9) + 12 I13(7) + 12 I15(4) + 12 I19(7) + 12 I21(9)
   + 12 I23(9) + 12 I25(6) + 12 I29(8) + 12 I31(6) + 12 I41(17)
   + 12 I72(14) + 12 I73(12) + 12 I76(5) + 12 I81(14) + 12 I83(12)
   + 12 I87(12) + 12 I89(13) + 12 I91(12) + 12 I96(17) + 12 I105(10)
   + 12 I125(14) + 12 I128(13) + 12 I133(13) + 10 I145(14) + 12 I146(8)
   + 12 I159(10) + 12 I161(8) + 12 I172(15) + 12 I178(12) + 12 I184(5)
   + 12 I200(6) + 12 I201(14) + 12 I204(17) + 12 I210(8) + 12 I214(4)
   + 12 I216(2) <= 12
 c16: 5 I3(15) + 5 I8(13) + 5 I32(8) + 5 I33(13) + 5 I36(15) + 5 I40(15)
   + 5 I69(15) + 5 I70(15) + 5 I73(12) + 5 I76(5) + 5 I77(14) + 5 I80(12)
   + 5 I81(14) + 5 I83(12) + 5 I84(16) + 5 I85(4) + 5 I86(17) + 5 I87(12)
   + 5 I88(14) + 5 I89(13) + 5 I90(8) + 5 I91(12) + 5 I92(12) + 5 I93(6)
   + 5 I94(6) + 5 I97(13) + 5 I103(14) + 5 I104(17) + 5 I106(11)
   + 5 I108(13) + 5 I109(15) + 5 I110(12) + 5 I115(5) + 5 I116(7)
   + 5 I120(14) + 5 I124(6) + 5 I125(14) + 5 I127(8) + 5 I128(13)
   + 5 I140(16) + 5 I142(15) + 5 I145(14) + 5 I147(17) + 5 I159(10)
   + 5 I160(6) + 5 I171(15) + 5 I174(11) + 5 I178(12) + 5 I203(14)
   + 5 I205(8) <= 5
 c17: 11 I0(6) + 11 I1(16) + 11 I16(9) + 11 I17(5) + 4 I18(8) + 11 I26(13)
   + 11 I28(9) + 11 I43(14) + 11 I46(10) + 11 I47(14) + 11 I50(7)
   + 11 I51(13) + 3 I53(8) + 11 I55(13) + 11 I57(12) + 11 I61(11)
   + 11 I64(6) + 11 I69(15) + 11 I70(15) + 11 I72(14) + 11 I75(15)
   + 11 I79(12) + 11 I80(12) + 11 I84(16) + 11 I88(14) + 11 I89(13)
   + 11 I92(12) + 10 I100(15) + 10 I101(15) + 3 I105(10) + 3 I106(11)
   + 11 I107(15) + 11 I125(14) + 11 I127(8) + 11 I131(12) + 11 I132(11)
   + 11 I137(16) + 11 I138(16) + 11 I144(14) + 11 I146(8) + 11 I149(9)
   + 11 I153(3) + 11 I166(6) + 11 I183(15) + 11 I185(15) + 4 I188(12)
   + 11 I190(8) + 4 I192(17) + 11 I193(6) + 3 I194(14) + 11 I195(14)
   + 11 I197(12) + 11 I201(14) + 11 I210(8) + 11 I217(2) + 11 I223(3)
   <= 11
 c18: 6 I1(16) + 6 I3(15) + 6 I4(6) + 6 I9(14) + 6 I16(9) + 6 I26(13)
   + 6 I29(8) + 6 I33(13) + 6 I36(15) + 6 I37(16) + 6 I41(17) + 6 I43(14)
   + 6 I47(14) + 6 I50(7) + 6 I56(9) + 6 I62(11) + 6 I65(9) + 6 I84(16)
   + 6 I87(12) + 6 I96(17) + 6 I99(8) + 6 I100(15) + 6 I101(15)
   + 6 I103(14) + 6 I104(17) + 6 I109(15) + 6 I113(7) + 6 I129(10)
   + 6 I131(12) + 6 I133(13) + 6 I137(16) + 6 I140(16) + 6 I149(9)
   + 6 I162(9) + 6 I168(17) + 6 I169(17) + 6 I171(15) + 6 I172(15)
   + 6 I179(16) + 6 I180(15) + 6 I181(15) + 6 I182(12) + 6 I183(15)
   + 6 I191(7) + 6 I192(17) + 6 I195(14) + 6 I196(8) + 6 I197(12)
   + 6 I199(12) + 6 I203(14) + 6 I204(17) <= 6
 c19: 8 I1(16) + 5 I3(15) + 5 I13(7) + 5 I16(9) + 6 I19(7) + 8 I23(9)
   + 8 I34(13) + 5 I36(15) + 4 I41(17) + 8 I43(14) + 8 I44(13) + 8 I47(14)
   + 8 I49(10) + 8 I51(13) + 8 I55(13) + 8 I56(9) + 8 I57(12) + 8 I58(7)
   + 8 I67(5) + 8 I69(15) + 8 I70(15) + 8 I73(12) + 8 I80(12) + 5 I81(14)
   + 8 I86(17) + 8 I87(12) + 8 I88(14) + 8 I100(15) + 8 I101(15)
   + 5 I103(14) + 8 I109(15) + 8 I110(12) + 5 I119(6) + 8 I123(4)
   + 8 I131(12) + 8 I133(13) + 8 I134(11) + 8 I138(16) + 5 I140(16)
   + 8 I159(10) + 8 I164(6) + 8 I166(6) + 8 I169(17) + 8 I174(11)
   + 8 I179(16) + 8 I180(15) + 8 I183(15) + 8 I185(15) + 7 I188(12)
   + 8 I192(17) + 8 I198(11) + 8 I200(6) + 8 I201(14) + 5 I203(14)
   + 4 I204(17) + 8 I205(8) <= 8
 c20: 10 I3(15) + 10 I8(13) + 10 I13(7) + 10 I16(9) + 10 I18(8) + 10 I20(4)
   + 9 I26(13) + 9 I28(9) + 9 I29(8) + 10 I31(6) + 7 I34(13) + 10 I36(15)
   + 10 I45(11) + 9 I46(10) + 10 I48(4) + 7 I51(13) + 7 I57(12) + 10 I60(5)
   + 9 I61(11) + 7 I67(5) + 7 I69(15) + 7 I70(15) + 10 I81(14) + 7 I86(17)
   + 7 I87(12) + 7 I88(14) + 9 I91(12) + 9 I96(17) + 10 I99(8) + 7 I100(15)
   + 7 I101(15) + 10 I103(14) + 10 I108(13) + 10 I111(11) + 10 I114(6)
   + 10 I119(6) + 9 I122(6) + 9 I127(8) + 10 I128(13) + 6 I137(16)
   + 7 I138(16) + 10 I140(16) + 10 I142(15) + 10 I145(14) + 9 I147(17)
   + 10 I158(9) + 9 I160(6) + 9 I162(9) + 7 I166(6) + 10 I168(17)
   + 7 I169(17) + 10 I171(15) + 10 I175(15) + 9 I182(12) + 7 I185(15)
   + 8 I188(12) + 9 I191(7) + 9 I193(6) + 9 I194(14) + 9 I195(14)
   + 9 I197(12) + 7 I201(14) + 10 I203(14) <= 10
 c21: 8 I3(15) + 8 I7(15) + 8 I9(14) + 8 I18(8) + 8 I21(9) + 8 I32(8)
   + 8 I33(13) + 8 I34(13) + 8 I36(15) + 8 I38(8) + 8 I41(17) + 8 I43(14)
   + 8 I45(11) + 8 I55(13) + 8 I72(14) + 8 I103(14) + 8 I109(15)
   + 8 I111(11) + 8 I140(16) + 8 I142(15) + 8 I143(6) + 8 I162(9)
   + 8 I168(17) + 8 I169(17) + 8 I171(15) + 8 I173(6) + 8 I174(11)
   + 8 I175(15) + 8 I176(4) + 8 I179(16) + 8 I181(15) + 8 I183(15)
   + 8 I186(9) + 8 I188(12) + 8 I189(9) + 8 I190(8) + 8 I192(17)
   + 8 I195(14) + 8 I196(8) + 8 I197(12) + 8 I199(12) + 8 I203(14)
   + 8 I207(4) <= 8
 c22: 10 I7(15) + 10 I9(14) + 11 I18(8) + 10 I40(15) + 11 I42(7)
   + 10 I44(13) + 4 I72(14) + 11 I73(12) + 11 I74(6) + 11 I75(15)
   + 10 I77(14) + 11 I78(10) + 4 I84(16) + 10 I86(17) + 4 I89(13)
   + 10 I91(12) + 11 I94(6) + 10 I96(17) + 10 I97(13) + 11 I107(15)
   + 10 I128(13) + 11 I144(14) + 10 I147(17) + 11 I167(6) + 10 I168(17)
   + 10 I169(17) + 11 I171(15) + 10 I174(11) + 10 I175(15) + 11 I177(10)
   + 10 I179(16) + 10 I180(15) + 11 I181(15) + 11 I188(12) + 11 I192(17)
   + 11 I194(14) + 10 I198(11) + 10 I199(12) + 11 I208(3) <= 11
 c23: 14 I11(7) + 14 I26(13) + 14 I28(9) + 14 I29(8) + 14 I31(6)
   + 14 I37(16) + 9 I38(8) + 14 I44(13) + 14 I46(10) + 14 I54(5)
   + 14 I55(13) + 14 I60(5) + 14 I65(9) + 14 I72(14) + 14 I77(14)
   + 14 I79(12) + 14 I83(12) + 14 I84(16) + 14 I85(4) + 6 I86(17)
   + 14 I89(13) + 14 I90(8) + 14 I91(12) + 14 I93(6) + 9 I96(17)
   + 6 I97(13) + 6 I104(17) + 14 I105(10) + 14 I106(11) + 6 I109(15)
   + 14 I110(12) + 14 I116(7) + 14 I119(6) + 14 I125(14) + 14 I128(13)
   + 14 I133(13) + 6 I134(11) + 14 I147(17) + 14 I161(8) + 14 I172(15)
   + 14 I173(6) + 14 I180(15) + 9 I181(15) + 14 I182(12) + I183(15)
   + 14 I185(15) + 14 I186(9) + 14 I190(8) + 9 I194(14) + 14 I197(12)
   + 14 I199(12) + 14 I200(6) + 14 I201(14) + 14 I204(17) + 14 I211(4)
   + 14 I212(2) <= 14
 c24: 7 I7(15) + 7 I9(14) + 7 I18(8) + 7 I26(13) + 7 I31(6) + 7 I37(16)
   + 7 I41(17) + 7 I43(14) + 6 I46(10) + 7 I47(14) + 7 I49(10) + 7 I52(7)
   + 7 I56(9) + 7 I58(7) + 7 I62(11) + 7 I64(6) + 7 I67(5) + 7 I75(15)
   + 7 I79(12) + 7 I81(14) + 7 I83(12) + 7 I99(8) + 7 I100(15) + 7 I101(15)
   + 7 I103(14) + 7 I104(17) + 7 I107(15) + 7 I108(13) + 7 I109(15)
   + 7 I112(8) + 7 I113(7) + 7 I114(6) + 7 I116(7) + 7 I119(6) + 7 I120(14)
   + 7 I125(14) + 7 I128(13) + 7 I129(10) + 6 I130(11) + 7 I131(12)
   + 7 I133(13) + 7 I134(11) + 7 I142(15) + 7 I159(10) + 7 I166(6)
   + 7 I175(15) + 7 I177(10) + 7 I178(12) + 7 I179(16) + 7 I183(15)
   + 7 I186(9) + 7 I188(12) + 7 I189(9) + 7 I193(6) + 7 I196(8) <= 7
 c25: 12 I1(16) + 12 I8(13) + 5 I9(14) + 10 I11(7) + 10 I14(5) + 12 I21(9)
   + 12 I24(7) + 12 I25(6) + 12 I26(13) + 12 I27(2) + 10 I30(5)
   + 12 I41(17) + 12 I51(13) + 12 I62(11) + 12 I69(15) + 12 I70(15)
   + 12 I86(17) + 12 I87(12) + 12 I88(14) + 12 I91(12) + 12 I92(12)
   + 5 I97(13) + 5 I100(15) + 5 I101(15) + 12 I108(13) + 12 I112(8)
   + 12 I120(14) + 12 I125(14) + 5 I128(13) + 12 I130(11) + 12 I131(12)
   + 12 I136(5) + 12 I137(16) + 12 I138(16) + 12 I141(4) + 12 I143(6)
   + 12 I145(14) + 12 I146(8) + 12 I148(4) + 12 I159(10) + 12 I161(8)
   + 12 I162(9) + 12 I163(2) + 5 I168(17) + 5 I169(17) + 12 I171(15)
   + 5 I174(11) + 12 I178(12) + 5 I179(16) + 12 I181(15) + 12 I182(12)
   + 12 I185(15) + 12 I189(9) + 12 I194(14) + 12 I196(8) + 5 I199(12)
   + 12 I201(14) + 12 I205(8) + 12 I210(8) + 12 I223(3) + 12 I225(3) <= 12
 c26: 6 I7(15) + 6 I10(9) + 6 I37(16) + 6 I40(15) + 2 I44(13) + 6 I45(11)
   + 6 I49(10) + 6 I50(7) + 2 I55(13) + 6 I57(12) + 6 I72(14) + 6 I81(14)
   + 6 I83(12) + 6 I90(8) + 6 I104(17) + 5 I111(11) + 6 I134(11)
   + 6 I136(5) + 6 I137(16) + 6 I138(16) + 6 I140(16) + 6 I141(4)
   + 6 I142(15) + 6 I147(17) + 6 I158(9) + 6 I160(6) + 6 I175(15)
   + 6 I180(15) + 6 I194(14) + 6 I204(17) + 6 I206(4) + 6 I214(4)
   + 6 I220(3) <= 6
 c27: <= 0
 c28: 7 I7(15) + 7 I10(9) + 7 I11(7) + 7 I15(4) + 7 I40(15) + 7 I50(7)
   + 7 I62(11) + 7 I64(6) + 7 I68(6) + 7 I69(15) + 7 I70(15) + 7 I72(14)
   + 7 I73(12) + 7 I74(6) + 7 I77(14) + 7 I78(10) + 7 I80(12) + 7 I83(12)
   + 7 I86(17) + 7 I87(12) + 7 I88(14) + 7 I90(8) + 7 I91(12) + 7 I92(12)
   + 7 I93(6) + 7 I95(4) + 7 I96(17) + 7 I97(13) + 7 I98(5) + 7 I112(8)
   + 7 I142(15) + 7 I144(14) + 7 I158(9) <= 7
 c29: <= 0
 c30: <= 0
 c31: 5 I1(16) + 5 I3(15) + 5 I5(4) + 5 I6(3) + 5 I8(13) + 5 I13(7)
   + 5 I19(7) + 5 I23(9) + 5 I26(13) + 5 I32(8) + 5 I33(13) + 5 I34(13)
   + 5 I36(15) + 5 I38(8) + 5 I39(4) + 5 I42(7) + 5 I48(4) + 5 I53(8)
   + 5 I55(13) + 5 I57(12) + 5 I61(11) + 5 I62(11) + 5 I72(14) + 5 I73(12)
   + 5 I75(15) + 5 I79(12) + 5 I81(14) + 5 I83(12) + 5 I86(17) + 5 I96(17)
   + 5 I100(15) + 5 I101(15) + 5 I103(14) + 5 I105(10) + 5 I107(15)
   + 5 I117(3) + 5 I120(14) + 5 I121(4) + 5 I125(14) + 5 I128(13)
   + 5 I130(11) + 5 I133(13) + 5 I137(16) + 5 I138(16) + 5 I140(16)
   + 5 I144(14) + 5 I149(9) + 5 I159(10) + 5 I162(9) + 5 I168(17)
   + 5 I169(17) + 5 I171(15) + 5 I173(6) + 5 I174(11) + 5 I177(10)
   + 3 I178(12) + 5 I182(12) + 5 I185(15) + 5 I186(9) + 5 I189(9)
   + 5 I190(8) + 5 I193(6) + 5 I201(14) + 5 I203(14) + 5 I205(8) <= 5
 c32: 10 I8(13) + 10 I13(7) + 10 I17(5) + 10 I20(4) + 10 I21(9) + 10 I24(7)
   + 6 I36(15) + 10 I44(13) + 10 I55(13) + 8 I57(12) + 10 I68(6)
   + 10 I69(15) + 10 I70(15) + 10 I72(14) + 10 I75(15) + 10 I77(14)
   + 10 I78(10) + 10 I79(12) + 10 I81(14) + 10 I84(16) + 10 I86(17)
   + 10 I87(12) + 10 I88(14) + 10 I89(13) + 10 I91(12) + 10 I94(6)
   + 10 I95(4) + 10 I96(17) + 10 I97(13) + 6 I107(15) + 6 I120(14)
   + 5 I128(13) + 10 I130(11) + 10 I131(12) + 10 I132(11) + 10 I133(13)
   + 10 I147(17) + 10 I179(16) + 10 I180(15) + 10 I210(8) + 10 I211(4)
   + 10 I214(4) <= 10
 c33: 12 I3(15) + 12 I4(6) + 12 I5(4) + 12 I6(3) + 12 I10(9) + 12 I32(8)
   + 12 I33(13) + 12 I34(13) + 12 I36(15) + 12 I37(16) + 12 I38(8)
   + 12 I39(4) + 4 I42(7) + 12 I45(11) + 12 I53(8) + 12 I62(11) + 12 I65(9)
   + 12 I93(6) + 12 I103(14) + 12 I104(17) + 12 I105(10) + 12 I106(11)
   + 12 I109(15) + 12 I111(11) + 12 I115(5) + 12 I118(6) + 12 I119(6)
   + 12 I122(6) + 12 I124(6) + 12 I126(6) + 12 I129(10) + 12 I130(11)
   + 12 I133(13) + 12 I134(11) + 12 I135(5) + 12 I140(16) + 12 I142(15)
   + 10 I172(15) + 12 I173(6) + 12 I203(14) + 12 I204(17) + 12 I205(8)
   <= 12
 c34: <= 0
 c35: 15 I33(13) + 15 I34(13) + 15 I37(16) + 15 I38(8) + 10 I41(17)
   + 15 I43(14) + 15 I45(11) + 15 I46(10) + 4 I47(14) + 15 I49(10)
   + 15 I53(8) + 15 I57(12) + 15 I60(5) + 15 I65(9) + 15 I83(12)
   + 15 I90(8) + 15 I99(8) + 15 I100(15) + 15 I101(15) + 15 I104(17)
   + 15 I105(10) + 10 I108(13) + 15 I109(15) + 10 I110(12) + 15 I111(11)
   + 15 I113(7) + 15 I115(5) + 15 I116(7) + 15 I118(6) + 15 I122(6)
   + 15 I123(4) + 15 I124(6) + 15 I126(6) + 15 I129(10) + 15 I130(11)
   + 15 I133(13) + 15 I135(5) + 15 I146(8) + 15 I158(9) + 10 I172(15)
   + 10 I178(12) + 15 I204(17) <= 15
 c36: 15 I16(9) + 15 I22(2) + 15 I23(9) + 15 I26(13) + 6 I47(14)
   + 15 I57(12) + 15 I61(11) + 15 I62(11) + 15 I63(2) + 15 I65(9)
   + 15 I75(15) + 15 I79(12) + 15 I83(12) + 15 I84(16) + 15 I89(13)
   + 15 I90(8) + 6 I129(10) + 15 I130(11) + 15 I136(5) + 15 I137(16)
   + 15 I138(16) + 15 I140(16) + 15 I141(4) + 15 I142(15) + 15 I143(6)
   + 15 I144(14) + 15 I145(14) + 15 I147(17) + 15 I148(4) + 15 I149(9)
   + 15 I153(3) + 15 I158(9) + 15 I159(10) + 15 I160(6) + 15 I161(8)
   + 15 I162(9) + 15 I164(6) + 15 I165(7) + 15 I192(17) + 15 I195(14)
   + 15 I208(3) + 15 I213(2) + 15 I221(4) + 15 I222(3) + 15 I224(3) <= 16
 c37: 6 I4(6) + I8(13) + 6 I11(7) + 6 I23(9) + 6 I24(7) + 6 I26(13)
   + 6 I28(9) + 6 I29(8) + 6 I37(16) + 6 I41(17) + 6 I43(14) + 6 I44(13)
   + 6 I46(10) + 6 I55(13) + 6 I61(11) + 6 I91(12) + 6 I96(17) + 6 I104(17)
   + 6 I109(15) + 6 I122(6) + 6 I123(4) + 6 I125(14) + 6 I127(8)
   + 6 I134(11) + 5 I142(15) + 6 I147(17) + 5 I158(9) + 6 I159(10)
   + 6 I160(6) + 6 I162(9) + 6 I167(6) + 5 I168(17) + 5 I171(15)
   + 6 I172(15) + 6 I179(16) + 6 I180(15) + 6 I182(12) + 6 I183(15)
   + 6 I191(7) + 6 I193(6) + 6 I194(14) + 6 I195(14) + 6 I197(12)
   + 6 I198(11) + 6 I204(17) + 6 I205(8) <= 6
 c38: 8 I0(6) + 8 I1(16) + 8 I17(5) + 8 I39(4) + 8 I40(15) + 8 I51(13)
   + 8 I53(8) + 8 I61(11) + 8 I73(12) + 8 I80(12) + 8 I92(12) + 8 I106(11)
   + 8 I116(7) + 8 I118(6) + 8 I126(6) + 8 I127(8) + 8 I145(14)
   + 8 I147(17) + 8 I194(14) + 8 I205(8) <= 8
 c39: <= 0
 c40: 14 I7(15) + 14 I9(14) + 14 I10(9) + 14 I19(7) + 14 I40(15)
   + 14 I43(14) + 14 I45(11) + 14 I49(10) + 14 I61(11) + 14 I75(15)
   + 14 I84(16) + 14 I92(12) + 14 I106(11) + 14 I107(15) + 14 I109(15)
   + 14 I111(11) + 14 I120(14) + 14 I129(10) + 14 I131(12) + 14 I132(11)
   + 14 I144(14) + 14 I145(14) + 14 I156(3) + 14 I165(7) + 14 I179(16)
   + 14 I192(17) + 14 I195(14) + 14 I200(6) + 14 I201(14) + 14 I203(14)
   + 14 I204(17) + 14 I210(8) <= 14
 c41: 5 I1(16) + 5 I7(15) + 5 I9(14) + 5 I11(7) + 5 I12(5) + 5 I14(5)
   + 5 I21(9) + 5 I25(6) + 5 I26(13) + 5 I30(5) + 5 I40(15) + 5 I41(17)
   + 5 I44(13) + 5 I51(13) + 5 I69(15) + 5 I70(15) + 5 I73(12) + 5 I74(6)
   + 5 I77(14) + 5 I81(14) + 5 I86(17) + 5 I88(14) + 5 I91(12) + 5 I96(17)
   + 5 I97(13) + 5 I99(8) + 5 I100(15) + 5 I101(15) + 5 I108(13)
   + 5 I110(12) + 5 I112(8) + 5 I114(6) + 5 I120(14) + 5 I125(14)
   + 5 I128(13) + 5 I131(12) + 5 I132(11) + 5 I137(16) + 5 I138(16)
   + 5 I147(17) + 5 I168(17) + 5 I169(17) + 5 I172(15) + 5 I174(11)
   + 5 I175(15) + 4 I177(10) + 5 I178(12) + 5 I179(16) + 5 I180(15)
   + 5 I182(12) + 5 I185(15) + 5 I189(9) + 5 I198(11) + 5 I199(12)
   + 5 I201(14) + 5 I206(4) + 5 I210(8) + 5 I222(3) + 5 I225(3) <= 5
 c42: 4 I8(13) + 4 I18(8) + 4 I20(4) + 4 I31(6) + 4 I33(13) + 4 I40(15)
   + 4 I43(14) + 4 I44(13) + 4 I45(11) + 4 I49(10) + 4 I55(13) + 4 I57(12)
   + 4 I61(11) + 4 I62(11) + 4 I67(5) + 4 I77(14) + 4 I78(10) + 4 I88(14)
   + 4 I98(5) + 4 I108(13) + 4 I110(12) + 4 I111(11) + 4 I121(4)
   + 4 I122(6) + 4 I130(11) + 4 I133(13) + 4 I140(16) + 4 I142(15)
   + 4 I144(14) + 4 I145(14) + 4 I147(17) + 4 I162(9) + 4 I166(6)
   + 4 I167(6) + 4 I171(15) + 4 I174(11) + 4 I175(15) + 3 I177(10)
   + 4 I178(12) + 4 I179(16) + 4 I180(15) + 4 I181(15) + 2 I183(15)
   + 2 I185(15) + 3 I186(9) + 4 I190(8) + 4 I191(7) + 4 I192(17)
   + 4 I195(14) + 4 I197(12) + 4 I199(12) <= 4
 c43: <= 0
 c44: 11 I3(15) + 7 I8(13) + 7 I23(9) + 7 I28(9) + 12 I37(16) + 12 I41(17)
   + 12 I44(13) + 12 I45(11) + 12 I46(10) + 12 I47(14) + 12 I56(9)
   + 12 I57(12) + 7 I70(15) + 12 I79(12) + 7 I86(17) + 12 I87(12)
   + 12 I88(14) + 11 I96(17) + 12 I103(14) + 12 I104(17) + 12 I107(15)
   + 12 I108(13) + 12 I110(12) + 12 I111(11) + 12 I112(8) + 12 I120(14)
   + 12 I132(11) + 12 I140(16) + 12 I144(14) + 12 I167(6) + 11 I168(17)
   + 11 I169(17) + 12 I171(15) + 7 I172(15) + 12 I174(11) + 12 I177(10)
   + 12 I178(12) + 10 I180(15) + 12 I181(15) + 12 I182(12) + 12 I183(15)
   + 7 I185(15) + 12 I186(9) + 12 I189(9) + 12 I192(17) + 12 I196(8)
   + 12 I197(12) + 10 I199(12) + 12 I203(14) + 12 I204(17) <= 12
 c45: 6 I1(16) + 6 I7(15) + 6 I28(9) + 6 I29(8) + 6 I33(13) + 6 I34(13)
   + 6 I38(8) + 6 I40(15) + 6 I43(14) + 6 I45(11) + 6 I49(10) + 6 I51(13)
   + 6 I52(7) + 6 I56(9) + 6 I58(7) + 6 I64(6) + 6 I66(2) + 6 I70(15)
   + 6 I72(14) + 6 I74(6) + 6 I76(5) + 6 I77(14) + 6 I78(10) + 6 I81(14)
   + 6 I83(12) + 6 I85(4) + 6 I86(17) + 6 I88(14) + 6 I92(12) + 6 I95(4)
   + 6 I96(17) + 6 I97(13) + 6 I104(17) + 6 I105(10) + 6 I106(11)
   + 6 I109(15) + 6 I132(11) + 6 I133(13) + 6 I134(11) + 6 I136(5)
   + 6 I137(16) + 6 I138(16) + 6 I146(8) + 6 I148(4) + 6 I168(17)
   + 6 I169(17) + 6 I175(15) + 6 I180(15) + 6 I181(15) + 6 I186(9)
   + 6 I188(12) + 6 I194(14) + 6 I198(11) <= 6
 c46: 6 I3(15) + 6 I11(7) + 6 I13(7) + 6 I14(5) + 6 I16(9) + 6 I24(7)
   + 6 I28(9) + 6 I30(5) + 6 I32(8) + 6 I33(13) + 6 I34(13) + 6 I36(15)
   + 6 I37(16) + 6 I40(15) + 6 I41(17) + 6 I42(7) + 6 I46(10) + 6 I48(4)
   + 6 I51(13) + 6 I52(7) + 6 I53(8) + 6 I54(5) + 6 I55(13) + 6 I57(12)
   + 6 I59(3) + 6 I61(11) + 6 I65(9) + 6 I75(15) + 6 I79(12) + 6 I84(16)
   + 6 I89(13) + 6 I103(14) + 6 I104(17) + 6 I106(11) + 6 I107(15)
   + 6 I110(12) + 6 I112(8) + 6 I114(6) + 6 I120(14) + 6 I124(6)
   + 6 I125(14) + 6 I131(12) + 6 I132(11) + 6 I140(16) + 6 I142(15)
   + 6 I143(6) + 6 I144(14) + 6 I150(3) + 6 I158(9) + 6 I171(15)
   + 6 I172(15) + 6 I176(4) + 6 I177(10) + 6 I181(15) + 6 I182(12)
   + 6 I184(5) + 6 I185(15) + 6 I189(9) + 6 I197(12) + 6 I203(14)
   + 6 I204(17) + 6 I207(4) + 6 I218(3) <= 6
 c47: I0(6) + I1(16) + I2(1) + I3(15) + I4(6) + I5(4) + I6(3) + I7(15)
   + I8(13) + I9(14) + I10(9) + I11(7) + I12(5) + I13(7) + I14(5) + I15(4)
   + I16(9) + I17(5) + I18(8) + I19(7) + I20(4) + I21(9) + I22(2) + I23(9)
   + I24(7) + I25(6) + I26(13) + I27(2) + I28(9) + I29(8) + I30(5) + I31(6)
   = 1
 c48: I32(8) + I33(13) + I34(13) + I35(1) + I36(15) + I37(16) + I38(8)
   + I39(4) + I40(15) + I41(17) + I42(7) + I43(14) + I44(13) + I45(11)
   + I46(10) + I47(14) + I48(4) + I49(10) + I50(7) + I51(13) + I52(7)
   + I53(8) + I54(5) + I55(13) + I56(9) + I57(12) + I58(7) + I59(3)
   + I60(5) + I61(11) + I62(11) + I63(2) + I64(6) + I65(9) + I66(2)
   + I67(5) = 1
 c49: I68(6) + I69(15) + I70(15) + I71(1) + I72(14) + I73(12) + I74(6)
   + I75(15) + I76(5) + I77(14) + I78(10) + I79(12) + I80(12) + I81(14)
   + I82(2) + I83(12) + I84(16) + I85(4) + I86(17) + I87(12) + I88(14)
   + I89(13) + I90(8) + I91(12) + I92(12) + I93(6) + I94(6) + I95(4)
   + I96(17) + I97(13) + I98(5) = 1
 c50: I99(8) + I100(15) + I101(15) + I102(1) + I103(14) + I104(17)
   + I105(10) + I106(11) + I107(15) + I108(13) + I109(15) + I110(12)
   + I111(11) + I112(8) + I113(7) + I114(6) + I115(5) + I116(7) + I117(3)
   + I118(6) + I119(6) + I120(14) + I121(4) + I122(6) + I123(4) + I124(6)
   + I125(14) + I126(6) + I127(8) + I128(13) + I129(10) + I130(11)
   + I131(12) + I132(11) + I133(13) + I134(11) + I135(5) = 1
 c51: I136(5) + I137(16) + I138(16) + I139(1) + I140(16) + I141(4)
   + I142(15) + I143(6) + I144(14) + I145(14) + I146(8) + I147(17)
   + I148(4) + I149(9) + I150(3) + I151(2) + I152(2) + I153(3) + I154(2)
   + I155(2) + I156(3) + I157(3) + I158(9) + I159(10) + I160(6) + I161(8)
   + I162(9) + I163(2) + I164(6) + I165(7) + I166(6) = 1
 c52: I167(6) + I168(17) + I169(17) + I170(1) + I171(15) + I172(15)
   + I173(6) + I174(11) + I175(15) + I176(4) + I177(10) + I178(12)
   + I179(16) + I180(15) + I181(15) + I182(12) + I183(15) + I184(5)
   + I185(15) + I186(9) + I187(3) + I188(12) + I189(9) + I190(8) + I191(7)
   + I192(17) + I193(6) + I194(14) + I195(14) + I196(8) + I197(12)
   + I198(11) + I199(12) = 1
 c53: I200(6) + I201(14) + I202(1) + I203(14) + I204(17) + I205(8)
   + I206(4) + I207(4) + I208(3) + I209(2) + I210(8) + I211(4) + I212(2)
   + I213(2) + I214(4) + I215(2) + I216(2) + I217(2) + I218(3) + I219(2)
   + I220(3) + I221(4) + I222(3) + I223(3) + I224(3) + I225(3) = 1
Bounds
Generals
 I0(6) I1(16) I2(1) I3(15) I4(6) I5(4) I6(3) I7(15) I8(13) I9(14) I10(9)
 I11(7) I12(5) I13(7) I14(5) I15(4) I16(9) I17(5) I18(8) I19(7) I20(4)
 I21(9) I22(2) I23(9) I24(7) I25(6) I26(13) I27(2) I28(9) I29(8) I30(5)
 I31(6) I32(8) I33(13) I34(13) I35(1) I36(15) I37(16) I38(8) I39(4) I40(15)
 I41(17) I42(7) I43(14) I44(13) I45(11) I46(10) I47(14) I48(4) I49(10)
 I50(7) I51(13) I52(7) I53(8) I54(5) I55(13) I56(9) I57(12) I58(7) I59(3)
 I60(5) I61(11) I62(11) I63(2) I64(6) I65(9) I66(2) I67(5) I68(6) I69(15)
 I70(15) I71(1) I72(14) I73(12) I74(6) I75(15) I76(5) I77(14) I78(10)
 I79(12) I80(12) I81(14) I82(2) I83(12) I84(16) I85(4) I86(17) I87(12)
 I88(14) I89(13) I90(8) I91(12) I92(12) I93(6) I94(6) I95(4) I96(17)
 I97(13) I98(5) I99(8) I100(15) I101(15) I102(1) I103(14) I104(17) I105(10)
 I106(11) I107(15) I108(13) I109(15) I110(12) I111(11) I112(8) I113(7)
 I114(6) I115(5) I116(7) I117(3) I118(6) I119(6) I120(14) I121(4) I122(6)
 I123(4) I124(6) I125(14) I126(6) I127(8) I128(13) I129(10) I130(11)
 I131(12) I132(11) I133(13) I134(11) I135(5) I136(5) I137(16) I138(16)
 I139(1) I140(16) I141(4) I142(15) I143(6) I144(14) I145(14) I146(8)
 I147(17) I148(4) I149(9) I150(3) I151(2) I152(2) I153(3) I154(2) I155(2)
 I156(3) I157(3) I158(9) I159(10) I160(6) I161(8) I162(9) I163(2) I164(6)
 I165(7) I166(6) I167(6) I168(17) I169(17) I170(1) I171(15) I172(15)
 I173(6) I174(11) I175(15) I176(4) I177(10) I178(12) I179(16) I180(15)
 I181(15) I182(12) I183(15) I184(5) I185(15) I186(9) I187(3) I188(12)
 I189(9) I190(8) I191(7) I192(17) I193(6) I194(14) I195(14) I196(8)
 I197(12) I198(11) I199(12) I200(6) I201(14) I202(1) I203(14) I204(17)
 I205(8) I206(4) I207(4) I208(3) I209(2) I210(8) I211(4) I212(2) I213(2)
 I214(4) I215(2) I216(2) I217(2) I218(3) I219(2) I220(3) I221(4) I222(3)
 I223(3) I224(3) I225(3)
End
